<number of tasks>
20


<number of equipment>
5


<cycle time>
1000


<investment costs>
1,24238
2,13855
3,19678
4,20806
5,10665


<task times>
1,419,-1,-1,470,605
2,-1,599,507,-1,657
3,-1,562,-1,466,-1
4,-1,527,474,-1,585
5,409,-1,-1,470,550
6,-1,596,480,-1,580
7,387,-1,-1,449,471
8,-1,680,496,-1,741
9,-1,648,-1,524,-1
10,-1,683,567,-1,698
11,-1,571,388,-1,590
12,403,-1,-1,366,577
13,664,-1,-1,476,697
14,-1,602,588,-1,652
15,-1,617,-1,558,-1
16,-1,567,390,-1,558
17,-1,539,492,-1,580
18,425,-1,-1,503,601
19,-1,594,526,-1,602
20,404,-1,-1,413,605


<precedence relations>
1,2
1,3
2,4
2,9
3,4
3,5
3,6
4,7
4,8
5,7
5,8
5,9
6,7
6,8
6,9
7,10
8,12
8,14
10,11
10,12
11,13
11,14
12,13
13,15
13,16
13,17
14,16
14,17
15,19
16,18
17,19
17,20


<task types>
1,2
2,3
3,1
4,3
5,2
6,3
7,2
8,3
9,1
10,3
11,3
12,2
13,2
14,3
15,1
16,3
17,3
18,2
19,3
20,2


<line depot>
1,0
2,0
3,0
4,3
5,14


<processing costs>
1,7200
2,14400
3,7200
4,14400
5,14400


<saving costs>
1,2423
2,1385
3,1967
4,2080
5,1066


<end>
